NAME: tsp45_6
COMMENT: 45-tsp problem (Padberg/Rinaldi)
TYPE: TSP
DIMENSION: 45
EDGE_WEIGHT_TYPE : EUC_2D
NODE_COORD_SECTION
1 20 18
2 30 29
3 16 2
4 25 11
5 5 28
6 34 31
7 21 8
8 29 9
9 23 24
10 11 34
11 36 2
12 13 1
13 31 17
14 1 28
15 38 25
16 26 25
17 20 27
18 5 33
19 5 8
20 29 11
21 28 9
22 21 4
23 1 3
24 37 33
25 15 31
26 37 23
27 37 40
28 2 17
29 34 25
30 33 31
31 10 22
32 30 14
33 9 30
34 38 35
35 14 31
36 36 2
37 30 9
38 36 26
39 15 30
40 11 1
41 21 38
42 13 38
43 25 2
44 31 27
45 35 23
